words_hard_train/5423.qaiger
aag 27 10 0 1 17
2
4
8
10
20
30
32
40
42
46
54
6 3 5
12 8 10
14 2 4
16 13 15
18 7 17
22 19 21
24 18 20
26 23 25
28 9 11
34 30 32
36 29 34
38 36 7
44 40 42
48 44 46
50 48 16
52 38 50
54 26 53
i0 1 x1[6]
i1 2 y2[6]
i2 1 x1[5]
i3 2 y2[5]
i4 1 x1[7]
i5 1 x1[0]
i6 1 x1[3]
i7 1 x1[1]
i8 1 x1[4]
i9 1 x1[2]
o0 bv[0]
c
simplified
  >=
    invert
      1
    add
      1 x1
      and
        2 y2
        96
