words_hard_train/5423.qaiger.qdimacs
p cnf 27 52
a 1 4 10 15 16 20 21 23 0
e 2 3 5 6 7 8 9 11 12 13 14 17 18 19 22 24 25 26 27 0
1 2 3 0
-1 -3 0
-2 -3 0
-4 -5 6 0
4 -6 0
5 -6 0
-1 -2 7 0
1 -7 0
2 -7 0
6 7 8 0
-6 -8 0
-7 -8 0
3 8 9 0
-3 -9 0
-8 -9 0
9 10 11 0
-9 -11 0
-10 -11 0
-9 -10 12 0
9 -12 0
10 -12 0
11 12 13 0
-11 -13 0
-12 -13 0
4 5 14 0
-4 -14 0
-5 -14 0
-15 -16 17 0
15 -17 0
16 -17 0
14 -17 18 0
-14 -18 0
17 -18 0
-18 3 19 0
18 -19 0
-3 -19 0
-20 -21 22 0
20 -22 0
21 -22 0
-22 -23 24 0
22 -24 0
23 -24 0
-24 -8 25 0
24 -25 0
8 -25 0
-19 -25 26 0
19 -26 0
25 -26 0
-13 26 27 0
13 -27 0
-26 -27 0
27 0
